nNurses = 108;
nHours = 29;
minHours = 8;
maxHours = 11;
maxConsec = 7;
maxPresence = 8;
demand = [33, 35, 31, 26, 22, 19, 19, 16, 12, 8, 8, 7, 5, 10, 13, 9, 8, 5, 6, 10, 11, 10, 6, 10, 9, 10, 9, 8, 7];
